33D32945 STP File, STP Format Version 1.0

SECTION Comment
Name    "i080-322"
Creator "Cees Duin"
Remark  "Incidence graph"
END

SECTION Graph
Nodes 80
Edges 3160
E 1 2 295
E 1 3 297
E 1 4 301
E 1 5 306
E 1 6 297
E 1 7 303
E 1 8 301
E 1 9 313
E 1 10 283
E 1 11 304
E 1 12 301
E 1 13 289
E 1 14 303
E 1 15 300
E 1 16 302
E 1 17 301
E 1 18 293
E 1 19 304
E 1 20 297
E 1 21 195
E 1 22 200
E 1 23 210
E 1 24 210
E 1 25 204
E 1 26 203
E 1 27 199
E 1 28 201
E 1 29 201
E 1 30 202
E 1 31 195
E 1 32 210
E 1 33 206
E 1 34 202
E 1 35 200
E 1 36 195
E 1 37 197
E 1 38 195
E 1 39 205
E 1 40 199
E 1 41 202
E 1 42 196
E 1 43 202
E 1 44 193
E 1 45 203
E 1 46 198
E 1 47 207
E 1 48 199
E 1 49 196
E 1 50 198
E 1 51 201
E 1 52 206
E 1 53 208
E 1 54 193
E 1 55 193
E 1 56 203
E 1 57 199
E 1 58 203
E 1 59 196
E 1 60 190
E 1 61 189
E 1 62 202
E 1 63 186
E 1 64 192
E 1 65 202
E 1 66 197
E 1 67 200
E 1 68 203
E 1 69 198
E 1 70 195
E 1 71 185
E 1 72 200
E 1 73 195
E 1 74 199
E 1 75 193
E 1 76 217
E 1 77 200
E 1 78 197
E 1 79 194
E 1 80 197
E 2 3 300
E 2 4 301
E 2 5 295
E 2 6 291
E 2 7 297
E 2 8 293
E 2 9 302
E 2 10 302
E 2 11 298
E 2 12 304
E 2 13 306
E 2 14 295
E 2 15 301
E 2 16 295
E 2 17 296
E 2 18 307
E 2 19 294
E 2 20 298
E 2 21 206
E 2 22 199
E 2 23 203
E 2 24 197
E 2 25 200
E 2 26 204
E 2 27 202
E 2 28 202
E 2 29 198
E 2 30 206
E 2 31 208
E 2 32 193
E 2 33 203
E 2 34 206
E 2 35 197
E 2 36 193
E 2 37 198
E 2 38 198
E 2 39 196
E 2 40 202
E 2 41 188
E 2 42 198
E 2 43 188
E 2 44 200
E 2 45 199
E 2 46 198
E 2 47 199
E 2 48 194
E 2 49 203
E 2 50 198
E 2 51 195
E 2 52 206
E 2 53 198
E 2 54 198
E 2 55 203
E 2 56 195
E 2 57 201
E 2 58 202
E 2 59 204
E 2 60 200
E 2 61 202
E 2 62 195
E 2 63 191
E 2 64 205
E 2 65 205
E 2 66 194
E 2 67 200
E 2 68 200
E 2 69 200
E 2 70 197
E 2 71 197
E 2 72 203
E 2 73 195
E 2 74 201
E 2 75 205
E 2 76 211
E 2 77 199
E 2 78 201
E 2 79 204
E 2 80 198
E 3 4 293
E 3 5 301
E 3 6 302
E 3 7 288
E 3 8 296
E 3 9 303
E 3 10 298
E 3 11 311
E 3 12 296
E 3 13 297
E 3 14 299
E 3 15 303
E 3 16 298
E 3 17 302
E 3 18 292
E 3 19 301
E 3 20 295
E 3 21 197
E 3 22 200
E 3 23 203
E 3 24 196
E 3 25 199
E 3 26 200
E 3 27 200
E 3 28 190
E 3 29 190
E 3 30 190
E 3 31 205
E 3 32 196
E 3 33 197
E 3 34 196
E 3 35 214
E 3 36 201
E 3 37 200
E 3 38 198
E 3 39 212
E 3 40 205
E 3 41 206
E 3 42 196
E 3 43 196
E 3 44 200
E 3 45 198
E 3 46 204
E 3 47 202
E 3 48 201
E 3 49 198
E 3 50 200
E 3 51 193
E 3 52 201
E 3 53 198
E 3 54 198
E 3 55 208
E 3 56 201
E 3 57 200
E 3 58 191
E 3 59 205
E 3 60 192
E 3 61 204
E 3 62 206
E 3 63 195
E 3 64 204
E 3 65 203
E 3 66 201
E 3 67 210
E 3 68 201
E 3 69 200
E 3 70 197
E 3 71 202
E 3 72 202
E 3 73 199
E 3 74 188
E 3 75 195
E 3 76 200
E 3 77 199
E 3 78 190
E 3 79 199
E 3 80 196
E 4 5 299
E 4 6 309
E 4 7 300
E 4 8 291
E 4 9 303
E 4 10 300
E 4 11 294
E 4 12 299
E 4 13 303
E 4 14 303
E 4 15 302
E 4 16 300
E 4 17 301
E 4 18 304
E 4 19 298
E 4 20 295
E 4 21 193
E 4 22 215
E 4 23 206
E 4 24 200
E 4 25 198
E 4 26 192
E 4 27 205
E 4 28 202
E 4 29 198
E 4 30 201
E 4 31 198
E 4 32 193
E 4 33 202
E 4 34 196
E 4 35 201
E 4 36 198
E 4 37 200
E 4 38 198
E 4 39 205
E 4 40 195
E 4 41 202
E 4 42 203
E 4 43 208
E 4 44 202
E 4 45 204
E 4 46 197
E 4 47 200
E 4 48 193
E 4 49 205
E 4 50 198
E 4 51 199
E 4 52 207
E 4 53 193
E 4 54 201
E 4 55 208
E 4 56 198
E 4 57 194
E 4 58 196
E 4 59 199
E 4 60 203
E 4 61 200
E 4 62 198
E 4 63 203
E 4 64 204
E 4 65 210
E 4 66 199
E 4 67 194
E 4 68 206
E 4 69 201
E 4 70 191
E 4 71 196
E 4 72 197
E 4 73 204
E 4 74 185
E 4 75 197
E 4 76 205
E 4 77 203
E 4 78 202
E 4 79 201
E 4 80 207
E 5 6 299
E 5 7 298
E 5 8 309
E 5 9 304
E 5 10 302
E 5 11 299
E 5 12 311
E 5 13 298
E 5 14 300
E 5 15 303
E 5 16 307
E 5 17 302
E 5 18 300
E 5 19 286
E 5 20 298
E 5 21 201
E 5 22 201
E 5 23 199
E 5 24 208
E 5 25 196
E 5 26 203
E 5 27 206
E 5 28 195
E 5 29 198
E 5 30 206
E 5 31 189
E 5 32 199
E 5 33 198
E 5 34 208
E 5 35 199
E 5 36 200
E 5 37 190
E 5 38 205
E 5 39 196
E 5 40 205
E 5 41 204
E 5 42 199
E 5 43 189
E 5 44 195
E 5 45 198
E 5 46 199
E 5 47 201
E 5 48 200
E 5 49 201
E 5 50 209
E 5 51 205
E 5 52 186
E 5 53 203
E 5 54 205
E 5 55 197
E 5 56 194
E 5 57 198
E 5 58 198
E 5 59 192
E 5 60 206
E 5 61 206
E 5 62 202
E 5 63 192
E 5 64 202
E 5 65 210
E 5 66 196
E 5 67 197
E 5 68 199
E 5 69 202
E 5 70 198
E 5 71 197
E 5 72 194
E 5 73 198
E 5 74 205
E 5 75 203
E 5 76 200
E 5 77 196
E 5 78 197
E 5 79 212
E 5 80 197
E 6 7 290
E 6 8 297
E 6 9 297
E 6 10 309
E 6 11 303
E 6 12 308
E 6 13 292
E 6 14 297
E 6 15 300
E 6 16 292
E 6 17 297
E 6 18 300
E 6 19 295
E 6 20 306
E 6 21 197
E 6 22 200
E 6 23 197
E 6 24 209
E 6 25 210
E 6 26 195
E 6 27 195
E 6 28 199
E 6 29 203
E 6 30 192
E 6 31 203
E 6 32 203
E 6 33 205
E 6 34 195
E 6 35 192
E 6 36 192
E 6 37 199
E 6 38 186
E 6 39 205
E 6 40 207
E 6 41 202
E 6 42 200
E 6 43 208
E 6 44 206
E 6 45 201
E 6 46 210
E 6 47 199
E 6 48 193
E 6 49 207
E 6 50 204
E 6 51 200
E 6 52 193
E 6 53 201
E 6 54 188
E 6 55 202
E 6 56 203
E 6 57 194
E 6 58 203
E 6 59 195
E 6 60 199
E 6 61 195
E 6 62 208
E 6 63 210
E 6 64 201
E 6 65 201
E 6 66 192
E 6 67 205
E 6 68 203
E 6 69 197
E 6 70 187
E 6 71 195
E 6 72 196
E 6 73 198
E 6 74 195
E 6 75 204
E 6 76 193
E 6 77 192
E 6 78 203
E 6 79 206
E 6 80 196
E 7 8 293
E 7 9 299
E 7 10 300
E 7 11 302
E 7 12 302
E 7 13 290
E 7 14 302
E 7 15 298
E 7 16 297
E 7 17 299
E 7 18 303
E 7 19 300
E 7 20 303
E 7 21 197
E 7 22 195
E 7 23 211
E 7 24 198
E 7 25 190
E 7 26 203
E 7 27 188
E 7 28 203
E 7 29 199
E 7 30 200
E 7 31 199
E 7 32 190
E 7 33 203
E 7 34 196
E 7 35 199
E 7 36 192
E 7 37 188
E 7 38 198
E 7 39 199
E 7 40 193
E 7 41 205
E 7 42 208
E 7 43 209
E 7 44 201
E 7 45 195
E 7 46 201
E 7 47 198
E 7 48 203
E 7 49 201
E 7 50 197
E 7 51 200
E 7 52 208
E 7 53 210
E 7 54 200
E 7 55 206
E 7 56 199
E 7 57 199
E 7 58 202
E 7 59 205
E 7 60 205
E 7 61 202
E 7 62 199
E 7 63 197
E 7 64 210
E 7 65 195
E 7 66 200
E 7 67 192
E 7 68 199
E 7 69 201
E 7 70 196
E 7 71 198
E 7 72 194
E 7 73 196
E 7 74 203
E 7 75 201
E 7 76 202
E 7 77 208
E 7 78 203
E 7 79 195
E 7 80 199
E 8 9 290
E 8 10 310
E 8 11 295
E 8 12 295
E 8 13 309
E 8 14 307
E 8 15 298
E 8 16 303
E 8 17 289
E 8 18 303
E 8 19 297
E 8 20 304
E 8 21 199
E 8 22 213
E 8 23 197
E 8 24 211
E 8 25 200
E 8 26 194
E 8 27 193
E 8 28 200
E 8 29 196
E 8 30 205
E 8 31 199
E 8 32 195
E 8 33 207
E 8 34 203
E 8 35 199
E 8 36 206
E 8 37 197
E 8 38 199
E 8 39 201
E 8 40 192
E 8 41 199
E 8 42 206
E 8 43 196
E 8 44 196
E 8 45 203
E 8 46 204
E 8 47 196
E 8 48 194
E 8 49 192
E 8 50 202
E 8 51 199
E 8 52 208
E 8 53 196
E 8 54 203
E 8 55 191
E 8 56 198
E 8 57 199
E 8 58 198
E 8 59 195
E 8 60 201
E 8 61 195
E 8 62 204
E 8 63 191
E 8 64 200
E 8 65 187
E 8 66 188
E 8 67 200
E 8 68 203
E 8 69 197
E 8 70 195
E 8 71 208
E 8 72 202
E 8 73 198
E 8 74 189
E 8 75 195
E 8 76 194
E 8 77 193
E 8 78 200
E 8 79 202
E 8 80 191
E 9 10 294
E 9 11 292
E 9 12 299
E 9 13 294
E 9 14 291
E 9 15 302
E 9 16 297
E 9 17 305
E 9 18 301
E 9 19 296
E 9 20 300
E 9 21 195
E 9 22 200
E 9 23 203
E 9 24 203
E 9 25 197
E 9 26 202
E 9 27 203
E 9 28 203
E 9 29 203
E 9 30 199
E 9 31 203
E 9 32 199
E 9 33 197
E 9 34 197
E 9 35 206
E 9 36 202
E 9 37 198
E 9 38 193
E 9 39 205
E 9 40 195
E 9 41 204
E 9 42 203
E 9 43 203
E 9 44 199
E 9 45 197
E 9 46 201
E 9 47 192
E 9 48 199
E 9 49 199
E 9 50 200
E 9 51 198
E 9 52 204
E 9 53 200
E 9 54 205
E 9 55 204
E 9 56 202
E 9 57 196
E 9 58 206
E 9 59 206
E 9 60 211
E 9 61 194
E 9 62 198
E 9 63 199
E 9 64 209
E 9 65 204
E 9 66 202
E 9 67 198
E 9 68 209
E 9 69 203
E 9 70 199
E 9 71 192
E 9 72 202
E 9 73 200
E 9 74 205
E 9 75 195
E 9 76 199
E 9 77 199
E 9 78 192
E 9 79 200
E 9 80 198
E 10 11 304
E 10 12 299
E 10 13 302
E 10 14 297
E 10 15 301
E 10 16 300
E 10 17 295
E 10 18 291
E 10 19 292
E 10 20 291
E 10 21 197
E 10 22 196
E 10 23 196
E 10 24 201
E 10 25 200
E 10 26 202
E 10 27 197
E 10 28 193
E 10 29 202
E 10 30 204
E 10 31 197
E 10 32 201
E 10 33 200
E 10 34 204
E 10 35 211
E 10 36 200
E 10 37 202
E 10 38 203
E 10 39 194
E 10 40 197
E 10 41 202
E 10 42 200
E 10 43 205
E 10 44 200
E 10 45 209
E 10 46 190
E 10 47 205
E 10 48 200
E 10 49 200
E 10 50 210
E 10 51 198
E 10 52 195
E 10 53 204
E 10 54 204
E 10 55 193
E 10 56 195
E 10 57 196
E 10 58 191
E 10 59 198
E 10 60 195
E 10 61 198
E 10 62 209
E 10 63 202
E 10 64 205
E 10 65 204
E 10 66 196
E 10 67 204
E 10 68 209
E 10 69 195
E 10 70 208
E 10 71 192
E 10 72 198
E 10 73 195
E 10 74 205
E 10 75 204
E 10 76 205
E 10 77 208
E 10 78 195
E 10 79 201
E 10 80 200
E 11 12 296
E 11 13 296
E 11 14 306
E 11 15 302
E 11 16 307
E 11 17 302
E 11 18 298
E 11 19 303
E 11 20 297
E 11 21 209
E 11 22 192
E 11 23 198
E 11 24 199
E 11 25 195
E 11 26 209
E 11 27 201
E 11 28 195
E 11 29 206
E 11 30 206
E 11 31 213
E 11 32 202
E 11 33 200
E 11 34 202
E 11 35 197
E 11 36 196
E 11 37 199
E 11 38 202
E 11 39 195
E 11 40 193
E 11 41 202
E 11 42 194
E 11 43 197
E 11 44 196
E 11 45 196
E 11 46 197
E 11 47 208
E 11 48 194
E 11 49 196
E 11 50 196
E 11 51 199
E 11 52 199
E 11 53 205
E 11 54 203
E 11 55 205
E 11 56 202
E 11 57 195
E 11 58 202
E 11 59 204
E 11 60 200
E 11 61 206
E 11 62 196
E 11 63 206
E 11 64 204
E 11 65 202
E 11 66 191
E 11 67 207
E 11 68 191
E 11 69 192
E 11 70 199
E 11 71 193
E 11 72 198
E 11 73 202
E 11 74 196
E 11 75 198
E 11 76 210
E 11 77 197
E 11 78 197
E 11 79 194
E 11 80 209
E 12 13 299
E 12 14 306
E 12 15 296
E 12 16 299
E 12 17 302
E 12 18 289
E 12 19 290
E 12 20 302
E 12 21 194
E 12 22 199
E 12 23 198
E 12 24 202
E 12 25 197
E 12 26 200
E 12 27 205
E 12 28 198
E 12 29 202
E 12 30 203
E 12 31 191
E 12 32 202
E 12 33 191
E 12 34 196
E 12 35 197
E 12 36 199
E 12 37 200
E 12 38 206
E 12 39 200
E 12 40 199
E 12 41 201
E 12 42 203
E 12 43 198
E 12 44 195
E 12 45 201
E 12 46 199
E 12 47 196
E 12 48 200
E 12 49 211
E 12 50 190
E 12 51 198
E 12 52 202
E 12 53 197
E 12 54 196
E 12 55 203
E 12 56 198
E 12 57 201
E 12 58 202
E 12 59 194
E 12 60 196
E 12 61 190
E 12 62 201
E 12 63 208
E 12 64 196
E 12 65 192
E 12 66 198
E 12 67 195
E 12 68 197
E 12 69 208
E 12 70 203
E 12 71 198
E 12 72 200
E 12 73 202
E 12 74 194
E 12 75 205
E 12 76 203
E 12 77 202
E 12 78 205
E 12 79 196
E 12 80 207
E 13 14 312
E 13 15 303
E 13 16 300
E 13 17 296
E 13 18 296
E 13 19 304
E 13 20 300
E 13 21 200
E 13 22 196
E 13 23 193
E 13 24 200
E 13 25 197
E 13 26 193
E 13 27 205
E 13 28 200
E 13 29 204
E 13 30 198
E 13 31 202
E 13 32 199
E 13 33 196
E 13 34 197
E 13 35 189
E 13 36 196
E 13 37 200
E 13 38 197
E 13 39 203
E 13 40 194
E 13 41 197
E 13 42 198
E 13 43 196
E 13 44 200
E 13 45 189
E 13 46 195
E 13 47 195
E 13 48 193
E 13 49 203
E 13 50 205
E 13 51 200
E 13 52 203
E 13 53 201
E 13 54 195
E 13 55 199
E 13 56 208
E 13 57 197
E 13 58 204
E 13 59 203
E 13 60 205
E 13 61 199
E 13 62 197
E 13 63 198
E 13 64 198
E 13 65 197
E 13 66 197
E 13 67 199
E 13 68 202
E 13 69 201
E 13 70 202
E 13 71 199
E 13 72 196
E 13 73 200
E 13 74 205
E 13 75 198
E 13 76 201
E 13 77 204
E 13 78 206
E 13 79 202
E 13 80 203
E 14 15 301
E 14 16 300
E 14 17 290
E 14 18 297
E 14 19 299
E 14 20 292
E 14 21 204
E 14 22 205
E 14 23 201
E 14 24 205
E 14 25 201
E 14 26 206
E 14 27 197
E 14 28 201
E 14 29 201
E 14 30 196
E 14 31 196
E 14 32 192
E 14 33 201
E 14 34 202
E 14 35 199
E 14 36 191
E 14 37 201
E 14 38 197
E 14 39 197
E 14 40 202
E 14 41 200
E 14 42 199
E 14 43 201
E 14 44 198
E 14 45 201
E 14 46 201
E 14 47 198
E 14 48 193
E 14 49 205
E 14 50 191
E 14 51 203
E 14 52 199
E 14 53 194
E 14 54 206
E 14 55 200
E 14 56 197
E 14 57 198
E 14 58 188
E 14 59 191
E 14 60 201
E 14 61 209
E 14 62 203
E 14 63 192
E 14 64 204
E 14 65 196
E 14 66 203
E 14 67 205
E 14 68 199
E 14 69 198
E 14 70 204
E 14 71 209
E 14 72 205
E 14 73 192
E 14 74 192
E 14 75 198
E 14 76 193
E 14 77 198
E 14 78 200
E 14 79 209
E 14 80 201
E 15 16 305
E 15 17 315
E 15 18 296
E 15 19 302
E 15 20 293
E 15 21 208
E 15 22 201
E 15 23 199
E 15 24 197
E 15 25 199
E 15 26 201
E 15 27 206
E 15 28 194
E 15 29 207
E 15 30 198
E 15 31 201
E 15 32 196
E 15 33 200
E 15 34 208
E 15 35 201
E 15 36 193
E 15 37 196
E 15 38 193
E 15 39 206
E 15 40 191
E 15 41 203
E 15 42 204
E 15 43 191
E 15 44 201
E 15 45 204
E 15 46 200
E 15 47 204
E 15 48 201
E 15 49 191
E 15 50 198
E 15 51 192
E 15 52 192
E 15 53 209
E 15 54 203
E 15 55 204
E 15 56 200
E 15 57 195
E 15 58 200
E 15 59 186
E 15 60 200
E 15 61 189
E 15 62 200
E 15 63 204
E 15 64 197
E 15 65 203
E 15 66 206
E 15 67 191
E 15 68 196
E 15 69 205
E 15 70 205
E 15 71 205
E 15 72 201
E 15 73 192
E 15 74 190
E 15 75 200
E 15 76 191
E 15 77 199
E 15 78 190
E 15 79 202
E 15 80 195
E 16 17 304
E 16 18 298
E 16 19 306
E 16 20 309
E 16 21 203
E 16 22 197
E 16 23 198
E 16 24 200
E 16 25 199
E 16 26 189
E 16 27 196
E 16 28 199
E 16 29 196
E 16 30 200
E 16 31 206
E 16 32 194
E 16 33 198
E 16 34 199
E 16 35 202
E 16 36 206
E 16 37 203
E 16 38 201
E 16 39 203
E 16 40 199
E 16 41 195
E 16 42 201
E 16 43 206
E 16 44 201
E 16 45 190
E 16 46 199
E 16 47 197
E 16 48 197
E 16 49 208
E 16 50 192
E 16 51 200
E 16 52 202
E 16 53 197
E 16 54 195
E 16 55 195
E 16 56 205
E 16 57 197
E 16 58 199
E 16 59 199
E 16 60 205
E 16 61 200
E 16 62 201
E 16 63 196
E 16 64 192
E 16 65 194
E 16 66 208
E 16 67 201
E 16 68 205
E 16 69 202
E 16 70 197
E 16 71 211
E 16 72 202
E 16 73 206
E 16 74 188
E 16 75 202
E 16 76 203
E 16 77 203
E 16 78 191
E 16 79 193
E 16 80 198
E 17 18 294
E 17 19 298
E 17 20 295
E 17 21 202
E 17 22 200
E 17 23 209
E 17 24 199
E 17 25 199
E 17 26 201
E 17 27 199
E 17 28 204
E 17 29 199
E 17 30 199
E 17 31 199
E 17 32 201
E 17 33 205
E 17 34 185
E 17 35 205
E 17 36 207
E 17 37 206
E 17 38 202
E 17 39 199
E 17 40 200
E 17 41 207
E 17 42 202
E 17 43 205
E 17 44 202
E 17 45 202
E 17 46 206
E 17 47 206
E 17 48 200
E 17 49 199
E 17 50 194
E 17 51 196
E 17 52 199
E 17 53 206
E 17 54 205
E 17 55 200
E 17 56 200
E 17 57 192
E 17 58 204
E 17 59 200
E 17 60 202
E 17 61 205
E 17 62 201
E 17 63 194
E 17 64 208
E 17 65 199
E 17 66 195
E 17 67 194
E 17 68 195
E 17 69 189
E 17 70 203
E 17 71 197
E 17 72 201
E 17 73 200
E 17 74 206
E 17 75 195
E 17 76 200
E 17 77 206
E 17 78 197
E 17 79 200
E 17 80 198
E 18 19 295
E 18 20 290
E 18 21 199
E 18 22 198
E 18 23 197
E 18 24 206
E 18 25 195
E 18 26 198
E 18 27 204
E 18 28 199
E 18 29 206
E 18 30 197
E 18 31 195
E 18 32 199
E 18 33 201
E 18 34 195
E 18 35 197
E 18 36 198
E 18 37 200
E 18 38 199
E 18 39 209
E 18 40 199
E 18 41 207
E 18 42 201
E 18 43 193
E 18 44 192
E 18 45 191
E 18 46 197
E 18 47 193
E 18 48 194
E 18 49 208
E 18 50 211
E 18 51 195
E 18 52 199
E 18 53 203
E 18 54 202
E 18 55 205
E 18 56 195
E 18 57 201
E 18 58 202
E 18 59 203
E 18 60 197
E 18 61 190
E 18 62 202
E 18 63 205
E 18 64 196
E 18 65 197
E 18 66 200
E 18 67 200
E 18 68 199
E 18 69 198
E 18 70 204
E 18 71 200
E 18 72 203
E 18 73 200
E 18 74 200
E 18 75 199
E 18 76 192
E 18 77 201
E 18 78 202
E 18 79 197
E 18 80 197
E 19 20 300
E 19 21 204
E 19 22 209
E 19 23 215
E 19 24 212
E 19 25 198
E 19 26 205
E 19 27 204
E 19 28 205
E 19 29 205
E 19 30 201
E 19 31 196
E 19 32 193
E 19 33 197
E 19 34 200
E 19 35 194
E 19 36 202
E 19 37 200
E 19 38 199
E 19 39 197
E 19 40 198
E 19 41 202
E 19 42 197
E 19 43 192
E 19 44 193
E 19 45 199
E 19 46 203
E 19 47 196
E 19 48 192
E 19 49 201
E 19 50 202
E 19 51 201
E 19 52 200
E 19 53 197
E 19 54 198
E 19 55 207
E 19 56 210
E 19 57 192
E 19 58 204
E 19 59 197
E 19 60 197
E 19 61 193
E 19 62 197
E 19 63 190
E 19 64 198
E 19 65 197
E 19 66 209
E 19 67 205
E 19 68 198
E 19 69 203
E 19 70 199
E 19 71 193
E 19 72 207
E 19 73 208
E 19 74 201
E 19 75 203
E 19 76 205
E 19 77 191
E 19 78 193
E 19 79 202
E 19 80 197
E 20 21 199
E 20 22 204
E 20 23 198
E 20 24 191
E 20 25 198
E 20 26 193
E 20 27 204
E 20 28 200
E 20 29 200
E 20 30 204
E 20 31 202
E 20 32 199
E 20 33 190
E 20 34 199
E 20 35 209
E 20 36 212
E 20 37 199
E 20 38 201
E 20 39 204
E 20 40 191
E 20 41 201
E 20 42 194
E 20 43 191
E 20 44 205
E 20 45 206
E 20 46 200
E 20 47 194
E 20 48 197
E 20 49 200
E 20 50 199
E 20 51 191
E 20 52 197
E 20 53 200
E 20 54 199
E 20 55 199
E 20 56 195
E 20 57 196
E 20 58 197
E 20 59 204
E 20 60 202
E 20 61 205
E 20 62 206
E 20 63 202
E 20 64 198
E 20 65 210
E 20 66 196
E 20 67 206
E 20 68 207
E 20 69 201
E 20 70 193
E 20 71 196
E 20 72 208
E 20 73 194
E 20 74 207
E 20 75 193
E 20 76 204
E 20 77 198
E 20 78 198
E 20 79 197
E 20 80 202
E 21 22 100
E 21 23 96
E 21 24 101
E 21 25 100
E 21 26 98
E 21 27 100
E 21 28 101
E 21 29 100
E 21 30 97
E 21 31 107
E 21 32 101
E 21 33 97
E 21 34 96
E 21 35 105
E 21 36 98
E 21 37 95
E 21 38 99
E 21 39 91
E 21 40 99
E 21 41 99
E 21 42 102
E 21 43 96
E 21 44 104
E 21 45 106
E 21 46 95
E 21 47 103
E 21 48 106
E 21 49 114
E 21 50 114
E 21 51 103
E 21 52 101
E 21 53 89
E 21 54 103
E 21 55 103
E 21 56 101
E 21 57 97
E 21 58 90
E 21 59 96
E 21 60 95
E 21 61 101
E 21 62 92
E 21 63 93
E 21 64 96
E 21 65 98
E 21 66 106
E 21 67 91
E 21 68 95
E 21 69 100
E 21 70 98
E 21 71 92
E 21 72 99
E 21 73 97
E 21 74 98
E 21 75 94
E 21 76 104
E 21 77 90
E 21 78 99
E 21 79 109
E 21 80 101
E 22 23 101
E 22 24 96
E 22 25 97
E 22 26 97
E 22 27 100
E 22 28 98
E 22 29 93
E 22 30 96
E 22 31 94
E 22 32 98
E 22 33 101
E 22 34 100
E 22 35 107
E 22 36 107
E 22 37 99
E 22 38 101
E 22 39 92
E 22 40 88
E 22 41 97
E 22 42 94
E 22 43 102
E 22 44 97
E 22 45 96
E 22 46 103
E 22 47 99
E 22 48 98
E 22 49 106
E 22 50 94
E 22 51 102
E 22 52 98
E 22 53 106
E 22 54 94
E 22 55 94
E 22 56 103
E 22 57 104
E 22 58 112
E 22 59 102
E 22 60 88
E 22 61 98
E 22 62 101
E 22 63 100
E 22 64 101
E 22 65 101
E 22 66 107
E 22 67 96
E 22 68 99
E 22 69 98
E 22 70 101
E 22 71 102
E 22 72 92
E 22 73 101
E 22 74 99
E 22 75 101
E 22 76 92
E 22 77 97
E 22 78 103
E 22 79 100
E 22 80 102
E 23 24 111
E 23 25 99
E 23 26 87
E 23 27 96
E 23 28 98
E 23 29 96
E 23 30 108
E 23 31 104
E 23 32 97
E 23 33 100
E 23 34 91
E 23 35 97
E 23 36 100
E 23 37 103
E 23 38 103
E 23 39 100
E 23 40 99
E 23 41 97
E 23 42 97
E 23 43 98
E 23 44 97
E 23 45 106
E 23 46 93
E 23 47 96
E 23 48 98
E 23 49 96
E 23 50 97
E 23 51 93
E 23 52 102
E 23 53 106
E 23 54 94
E 23 55 89
E 23 56 105
E 23 57 100
E 23 58 96
E 23 59 111
E 23 60 99
E 23 61 100
E 23 62 98
E 23 63 101
E 23 64 96
E 23 65 104
E 23 66 97
E 23 67 98
E 23 68 105
E 23 69 100
E 23 70 99
E 23 71 99
E 23 72 99
E 23 73 92
E 23 74 102
E 23 75 96
E 23 76 95
E 23 77 101
E 23 78 101
E 23 79 88
E 23 80 100
E 24 25 93
E 24 26 94
E 24 27 100
E 24 28 95
E 24 29 107
E 24 30 106
E 24 31 97
E 24 32 100
E 24 33 103
E 24 34 99
E 24 35 97
E 24 36 97
E 24 37 102
E 24 38 93
E 24 39 96
E 24 40 96
E 24 41 103
E 24 42 95
E 24 43 100
E 24 44 101
E 24 45 98
E 24 46 97
E 24 47 98
E 24 48 95
E 24 49 94
E 24 50 92
E 24 51 96
E 24 52 99
E 24 53 96
E 24 54 101
E 24 55 104
E 24 56 99
E 24 57 101
E 24 58 100
E 24 59 104
E 24 60 102
E 24 61 98
E 24 62 111
E 24 63 99
E 24 64 96
E 24 65 98
E 24 66 94
E 24 67 101
E 24 68 98
E 24 69 108
E 24 70 109
E 24 71 101
E 24 72 105
E 24 73 105
E 24 74 92
E 24 75 102
E 24 76 109
E 24 77 92
E 24 78 102
E 24 79 91
E 24 80 102
E 25 26 102
E 25 27 92
E 25 28 93
E 25 29 99
E 25 30 92
E 25 31 99
E 25 32 98
E 25 33 104
E 25 34 98
E 25 35 90
E 25 36 99
E 25 37 98
E 25 38 99
E 25 39 101
E 25 40 95
E 25 41 103
E 25 42 103
E 25 43 101
E 25 44 103
E 25 45 98
E 25 46 96
E 25 47 99
E 25 48 108
E 25 49 100
E 25 50 94
E 25 51 93
E 25 52 103
E 25 53 91
E 25 54 96
E 25 55 97
E 25 56 97
E 25 57 98
E 25 58 96
E 25 59 100
E 25 60 107
E 25 61 96
E 25 62 99
E 25 63 99
E 25 64 92
E 25 65 86
E 25 66 96
E 25 67 88
E 25 68 96
E 25 69 101
E 25 70 94
E 25 71 97
E 25 72 101
E 25 73 99
E 25 74 100
E 25 75 91
E 25 76 97
E 25 77 104
E 25 78 107
E 25 79 104
E 25 80 94
E 26 27 100
E 26 28 97
E 26 29 96
E 26 30 107
E 26 31 100
E 26 32 99
E 26 33 96
E 26 34 91
E 26 35 99
E 26 36 97
E 26 37 96
E 26 38 99
E 26 39 90
E 26 40 109
E 26 41 103
E 26 42 94
E 26 43 105
E 26 44 108
E 26 45 98
E 26 46 103
E 26 47 98
E 26 48 104
E 26 49 93
E 26 50 98
E 26 51 105
E 26 52 98
E 26 53 102
E 26 54 98
E 26 55 99
E 26 56 96
E 26 57 98
E 26 58 107
E 26 59 96
E 26 60 98
E 26 61 99
E 26 62 97
E 26 63 104
E 26 64 100
E 26 65 109
E 26 66 103
E 26 67 96
E 26 68 91
E 26 69 96
E 26 70 99
E 26 71 101
E 26 72 110
E 26 73 103
E 26 74 100
E 26 75 90
E 26 76 100
E 26 77 90
E 26 78 96
E 26 79 102
E 26 80 107
E 27 28 103
E 27 29 100
E 27 30 96
E 27 31 99
E 27 32 97
E 27 33 95
E 27 34 99
E 27 35 98
E 27 36 108
E 27 37 101
E 27 38 93
E 27 39 97
E 27 40 94
E 27 41 97
E 27 42 87
E 27 43 102
E 27 44 93
E 27 45 98
E 27 46 100
E 27 47 100
E 27 48 94
E 27 49 111
E 27 50 97
E 27 51 97
E 27 52 103
E 27 53 106
E 27 54 102
E 27 55 98
E 27 56 102
E 27 57 93
E 27 58 104
E 27 59 104
E 27 60 97
E 27 61 98
E 27 62 106
E 27 63 105
E 27 64 94
E 27 65 102
E 27 66 109
E 27 67 103
E 27 68 103
E 27 69 101
E 27 70 101
E 27 71 101
E 27 72 95
E 27 73 96
E 27 74 101
E 27 75 102
E 27 76 101
E 27 77 102
E 27 78 96
E 27 79 100
E 27 80 103
E 28 29 103
E 28 30 102
E 28 31 89
E 28 32 100
E 28 33 97
E 28 34 90
E 28 35 94
E 28 36 106
E 28 37 83
E 28 38 105
E 28 39 98
E 28 40 95
E 28 41 106
E 28 42 96
E 28 43 105
E 28 44 93
E 28 45 94
E 28 46 106
E 28 47 101
E 28 48 101
E 28 49 104
E 28 50 100
E 28 51 116
E 28 52 103
E 28 53 96
E 28 54 96
E 28 55 90
E 28 56 96
E 28 57 95
E 28 58 98
E 28 59 104
E 28 60 87
E 28 61 96
E 28 62 96
E 28 63 98
E 28 64 100
E 28 65 93
E 28 66 98
E 28 67 92
E 28 68 98
E 28 69 96
E 28 70 103
E 28 71 96
E 28 72 101
E 28 73 94
E 28 74 103
E 28 75 102
E 28 76 99
E 28 77 93
E 28 78 93
E 28 79 105
E 28 80 97
E 29 30 103
E 29 31 98
E 29 32 88
E 29 33 99
E 29 34 93
E 29 35 105
E 29 36 102
E 29 37 99
E 29 38 96
E 29 39 105
E 29 40 98
E 29 41 100
E 29 42 101
E 29 43 94
E 29 44 99
E 29 45 99
E 29 46 106
E 29 47 107
E 29 48 109
E 29 49 94
E 29 50 101
E 29 51 107
E 29 52 98
E 29 53 92
E 29 54 96
E 29 55 98
E 29 56 101
E 29 57 105
E 29 58 101
E 29 59 94
E 29 60 95
E 29 61 107
E 29 62 101
E 29 63 98
E 29 64 104
E 29 65 97
E 29 66 95
E 29 67 105
E 29 68 106
E 29 69 99
E 29 70 104
E 29 71 94
E 29 72 98
E 29 73 101
E 29 74 104
E 29 75 95
E 29 76 97
E 29 77 103
E 29 78 94
E 29 79 97
E 29 80 100
E 30 31 105
E 30 32 106
E 30 33 103
E 30 34 101
E 30 35 106
E 30 36 92
E 30 37 90
E 30 38 102
E 30 39 97
E 30 40 101
E 30 41 108
E 30 42 108
E 30 43 102
E 30 44 101
E 30 45 99
E 30 46 102
E 30 47 97
E 30 48 94
E 30 49 109
E 30 50 105
E 30 51 106
E 30 52 93
E 30 53 101
E 30 54 98
E 30 55 106
E 30 56 98
E 30 57 95
E 30 58 101
E 30 59 101
E 30 60 98
E 30 61 99
E 30 62 99
E 30 63 94
E 30 64 105
E 30 65 98
E 30 66 99
E 30 67 97
E 30 68 105
E 30 69 103
E 30 70 109
E 30 71 97
E 30 72 94
E 30 73 98
E 30 74 109
E 30 75 107
E 30 76 90
E 30 77 101
E 30 78 96
E 30 79 92
E 30 80 98
E 31 32 95
E 31 33 103
E 31 34 102
E 31 35 100
E 31 36 92
E 31 37 105
E 31 38 96
E 31 39 106
E 31 40 104
E 31 41 102
E 31 42 91
E 31 43 101
E 31 44 94
E 31 45 111
E 31 46 99
E 31 47 98
E 31 48 103
E 31 49 96
E 31 50 100
E 31 51 106
E 31 52 103
E 31 53 97
E 31 54 98
E 31 55 105
E 31 56 99
E 31 57 106
E 31 58 103
E 31 59 100
E 31 60 110
E 31 61 103
E 31 62 104
E 31 63 95
E 31 64 96
E 31 65 113
E 31 66 96
E 31 67 97
E 31 68 109
E 31 69 103
E 31 70 98
E 31 71 85
E 31 72 97
E 31 73 97
E 31 74 102
E 31 75 104
E 31 76 100
E 31 77 98
E 31 78 103
E 31 79 89
E 31 80 99
E 32 33 99
E 32 34 97
E 32 35 96
E 32 36 98
E 32 37 97
E 32 38 96
E 32 39 100
E 32 40 90
E 32 41 98
E 32 42 94
E 32 43 109
E 32 44 101
E 32 45 98
E 32 46 98
E 32 47 102
E 32 48 103
E 32 49 97
E 32 50 98
E 32 51 102
E 32 52 97
E 32 53 94
E 32 54 98
E 32 55 95
E 32 56 92
E 32 57 96
E 32 58 87
E 32 59 107
E 32 60 99
E 32 61 97
E 32 62 103
E 32 63 92
E 32 64 100
E 32 65 96
E 32 66 99
E 32 67 90
E 32 68 102
E 32 69 97
E 32 70 97
E 32 71 96
E 32 72 94
E 32 73 96
E 32 74 101
E 32 75 96
E 32 76 97
E 32 77 92
E 32 78 98
E 32 79 96
E 32 80 107
E 33 34 95
E 33 35 103
E 33 36 98
E 33 37 103
E 33 38 104
E 33 39 106
E 33 40 93
E 33 41 91
E 33 42 97
E 33 43 110
E 33 44 98
E 33 45 101
E 33 46 101
E 33 47 96
E 33 48 108
E 33 49 109
E 33 50 102
E 33 51 104
E 33 52 101
E 33 53 100
E 33 54 105
E 33 55 99
E 33 56 101
E 33 57 95
E 33 58 94
E 33 59 101
E 33 60 101
E 33 61 92
E 33 62 96
E 33 63 100
E 33 64 100
E 33 65 104
E 33 66 109
E 33 67 99
E 33 68 99
E 33 69 98
E 33 70 97
E 33 71 94
E 33 72 89
E 33 73 105
E 33 74 99
E 33 75 100
E 33 76 98
E 33 77 91
E 33 78 93
E 33 79 103
E 33 80 103
E 34 35 94
E 34 36 101
E 34 37 105
E 34 38 94
E 34 39 102
E 34 40 98
E 34 41 87
E 34 42 103
E 34 43 98
E 34 44 96
E 34 45 104
E 34 46 90
E 34 47 100
E 34 48 96
E 34 49 99
E 34 50 103
E 34 51 107
E 34 52 103
E 34 53 98
E 34 54 105
E 34 55 94
E 34 56 95
E 34 57 104
E 34 58 97
E 34 59 90
E 34 60 94
E 34 61 94
E 34 62 105
E 34 63 105
E 34 64 102
E 34 65 98
E 34 66 101
E 34 67 97
E 34 68 89
E 34 69 106
E 34 70 109
E 34 71 104
E 34 72 103
E 34 73 98
E 34 74 97
E 34 75 104
E 34 76 100
E 34 77 104
E 34 78 93
E 34 79 103
E 34 80 95
E 35 36 113
E 35 37 109
E 35 38 103
E 35 39 92
E 35 40 109
E 35 41 96
E 35 42 93
E 35 43 98
E 35 44 98
E 35 45 108
E 35 46 109
E 35 47 94
E 35 48 102
E 35 49 94
E 35 50 90
E 35 51 100
E 35 52 95
E 35 53 104
E 35 54 101
E 35 55 101
E 35 56 97
E 35 57 96
E 35 58 94
E 35 59 98
E 35 60 102
E 35 61 96
E 35 62 93
E 35 63 94
E 35 64 94
E 35 65 99
E 35 66 101
E 35 67 104
E 35 68 95
E 35 69 104
E 35 70 93
E 35 71 95
E 35 72 108
E 35 73 108
E 35 74 106
E 35 75 97
E 35 76 101
E 35 77 109
E 35 78 93
E 35 79 97
E 35 80 106
E 36 37 101
E 36 38 106
E 36 39 103
E 36 40 95
E 36 41 100
E 36 42 106
E 36 43 107
E 36 44 101
E 36 45 104
E 36 46 101
E 36 47 106
E 36 48 102
E 36 49 102
E 36 50 105
E 36 51 102
E 36 52 103
E 36 53 110
E 36 54 104
E 36 55 100
E 36 56 96
E 36 57 96
E 36 58 95
E 36 59 96
E 36 60 105
E 36 61 101
E 36 62 108
E 36 63 104
E 36 64 102
E 36 65 104
E 36 66 93
E 36 67 98
E 36 68 98
E 36 69 109
E 36 70 99
E 36 71 102
E 36 72 90
E 36 73 96
E 36 74 102
E 36 75 96
E 36 76 104
E 36 77 109
E 36 78 97
E 36 79 98
E 36 80 99
E 37 38 94
E 37 39 102
E 37 40 100
E 37 41 103
E 37 42 97
E 37 43 99
E 37 44 105
E 37 45 94
E 37 46 99
E 37 47 106
E 37 48 95
E 37 49 101
E 37 50 107
E 37 51 103
E 37 52 94
E 37 53 101
E 37 54 94
E 37 55 107
E 37 56 98
E 37 57 98
E 37 58 95
E 37 59 105
E 37 60 97
E 37 61 102
E 37 62 105
E 37 63 99
E 37 64 96
E 37 65 95
E 37 66 94
E 37 67 101
E 37 68 105
E 37 69 95
E 37 70 104
E 37 71 105
E 37 72 102
E 37 73 97
E 37 74 100
E 37 75 98
E 37 76 99
E 37 77 101
E 37 78 98
E 37 79 93
E 37 80 95
E 38 39 106
E 38 40 111
E 38 41 106
E 38 42 95
E 38 43 103
E 38 44 99
E 38 45 95
E 38 46 95
E 38 47 95
E 38 48 98
E 38 49 96
E 38 50 95
E 38 51 103
E 38 52 98
E 38 53 92
E 38 54 102
E 38 55 103
E 38 56 103
E 38 57 107
E 38 58 92
E 38 59 109
E 38 60 96
E 38 61 88
E 38 62 96
E 38 63 101
E 38 64 98
E 38 65 99
E 38 66 98
E 38 67 96
E 38 68 106
E 38 69 93
E 38 70 106
E 38 71 98
E 38 72 103
E 38 73 98
E 38 74 97
E 38 75 105
E 38 76 90
E 38 77 107
E 38 78 100
E 38 79 103
E 38 80 107
E 39 40 97
E 39 41 113
E 39 42 98
E 39 43 97
E 39 44 97
E 39 45 104
E 39 46 100
E 39 47 99
E 39 48 93
E 39 49 106
E 39 50 100
E 39 51 103
E 39 52 95
E 39 53 103
E 39 54 98
E 39 55 99
E 39 56 102
E 39 57 89
E 39 58 106
E 39 59 106
E 39 60 94
E 39 61 96
E 39 62 105
E 39 63 92
E 39 64 108
E 39 65 102
E 39 66 111
E 39 67 99
E 39 68 95
E 39 69 100
E 39 70 102
E 39 71 104
E 39 72 103
E 39 73 103
E 39 74 93
E 39 75 99
E 39 76 100
E 39 77 99
E 39 78 103
E 39 79 99
E 39 80 95
E 40 41 99
E 40 42 101
E 40 43 102
E 40 44 100
E 40 45 101
E 40 46 101
E 40 47 100
E 40 48 99
E 40 49 99
E 40 50 98
E 40 51 105
E 40 52 97
E 40 53 93
E 40 54 101
E 40 55 103
E 40 56 105
E 40 57 95
E 40 58 103
E 40 59 91
E 40 60 100
E 40 61 100
E 40 62 97
E 40 63 104
E 40 64 92
E 40 65 101
E 40 66 100
E 40 67 96
E 40 68 104
E 40 69 100
E 40 70 91
E 40 71 98
E 40 72 97
E 40 73 97
E 40 74 99
E 40 75 87
E 40 76 107
E 40 77 102
E 40 78 100
E 40 79 101
E 40 80 92
E 41 42 95
E 41 43 97
E 41 44 98
E 41 45 101
E 41 46 91
E 41 47 104
E 41 48 109
E 41 49 93
E 41 50 90
E 41 51 92
E 41 52 96
E 41 53 95
E 41 54 98
E 41 55 100
E 41 56 98
E 41 57 92
E 41 58 99
E 41 59 99
E 41 60 95
E 41 61 93
E 41 62 102
E 41 63 92
E 41 64 101
E 41 65 100
E 41 66 95
E 41 67 112
E 41 68 104
E 41 69 103
E 41 70 103
E 41 71 100
E 41 72 108
E 41 73 95
E 41 74 97
E 41 75 100
E 41 76 103
E 41 77 99
E 41 78 106
E 41 79 92
E 41 80 100
E 42 43 100
E 42 44 98
E 42 45 99
E 42 46 92
E 42 47 103
E 42 48 100
E 42 49 95
E 42 50 100
E 42 51 103
E 42 52 101
E 42 53 107
E 42 54 103
E 42 55 96
E 42 56 97
E 42 57 100
E 42 58 99
E 42 59 94
E 42 60 101
E 42 61 96
E 42 62 94
E 42 63 99
E 42 64 98
E 42 65 91
E 42 66 96
E 42 67 95
E 42 68 108
E 42 69 91
E 42 70 95
E 42 71 97
E 42 72 98
E 42 73 92
E 42 74 96
E 42 75 102
E 42 76 103
E 42 77 95
E 42 78 103
E 42 79 97
E 42 80 105
E 43 44 99
E 43 45 103
E 43 46 110
E 43 47 107
E 43 48 103
E 43 49 106
E 43 50 99
E 43 51 93
E 43 52 102
E 43 53 113
E 43 54 94
E 43 55 91
E 43 56 93
E 43 57 107
E 43 58 94
E 43 59 102
E 43 60 101
E 43 61 97
E 43 62 101
E 43 63 99
E 43 64 94
E 43 65 97
E 43 66 104
E 43 67 98
E 43 68 97
E 43 69 113
E 43 70 100
E 43 71 102
E 43 72 99
E 43 73 97
E 43 74 97
E 43 75 106
E 43 76 104
E 43 77 99
E 43 78 91
E 43 79 98
E 43 80 101
E 44 45 111
E 44 46 99
E 44 47 96
E 44 48 107
E 44 49 101
E 44 50 96
E 44 51 106
E 44 52 97
E 44 53 98
E 44 54 100
E 44 55 105
E 44 56 96
E 44 57 106
E 44 58 108
E 44 59 116
E 44 60 104
E 44 61 97
E 44 62 108
E 44 63 108
E 44 64 103
E 44 65 92
E 44 66 91
E 44 67 98
E 44 68 109
E 44 69 96
E 44 70 102
E 44 71 101
E 44 72 98
E 44 73 91
E 44 74 96
E 44 75 96
E 44 76 104
E 44 77 91
E 44 78 100
E 44 79 99
E 44 80 99
E 45 46 98
E 45 47 103
E 45 48 91
E 45 49 102
E 45 50 100
E 45 51 99
E 45 52 96
E 45 53 101
E 45 54 95
E 45 55 102
E 45 56 91
E 45 57 106
E 45 58 91
E 45 59 101
E 45 60 106
E 45 61 98
E 45 62 97
E 45 63 101
E 45 64 97
E 45 65 92
E 45 66 100
E 45 67 106
E 45 68 93
E 45 69 94
E 45 70 92
E 45 71 99
E 45 72 97
E 45 73 103
E 45 74 98
E 45 75 98
E 45 76 100
E 45 77 93
E 45 78 91
E 45 79 101
E 45 80 104
E 46 47 95
E 46 48 106
E 46 49 98
E 46 50 102
E 46 51 91
E 46 52 100
E 46 53 98
E 46 54 95
E 46 55 95
E 46 56 106
E 46 57 99
E 46 58 107
E 46 59 106
E 46 60 93
E 46 61 99
E 46 62 98
E 46 63 112
E 46 64 102
E 46 65 103
E 46 66 100
E 46 67 93
E 46 68 92
E 46 69 101
E 46 70 99
E 46 71 102
E 46 72 98
E 46 73 99
E 46 74 96
E 46 75 97
E 46 76 93
E 46 77 97
E 46 78 90
E 46 79 100
E 46 80 99
E 47 48 96
E 47 49 100
E 47 50 100
E 47 51 97
E 47 52 94
E 47 53 101
E 47 54 102
E 47 55 99
E 47 56 102
E 47 57 98
E 47 58 100
E 47 59 100
E 47 60 98
E 47 61 95
E 47 62 105
E 47 63 90
E 47 64 94
E 47 65 104
E 47 66 106
E 47 67 97
E 47 68 93
E 47 69 98
E 47 70 98
E 47 71 88
E 47 72 100
E 47 73 105
E 47 74 91
E 47 75 103
E 47 76 98
E 47 77 98
E 47 78 95
E 47 79 101
E 47 80 105
E 48 49 100
E 48 50 97
E 48 51 92
E 48 52 105
E 48 53 92
E 48 54 98
E 48 55 106
E 48 56 102
E 48 57 103
E 48 58 105
E 48 59 100
E 48 60 109
E 48 61 98
E 48 62 97
E 48 63 105
E 48 64 102
E 48 65 103
E 48 66 109
E 48 67 100
E 48 68 104
E 48 69 96
E 48 70 97
E 48 71 107
E 48 72 104
E 48 73 95
E 48 74 92
E 48 75 99
E 48 76 91
E 48 77 91
E 48 78 104
E 48 79 112
E 48 80 99
E 49 50 103
E 49 51 91
E 49 52 97
E 49 53 96
E 49 54 107
E 49 55 100
E 49 56 92
E 49 57 96
E 49 58 94
E 49 59 106
E 49 60 101
E 49 61 102
E 49 62 105
E 49 63 106
E 49 64 91
E 49 65 109
E 49 66 101
E 49 67 108
E 49 68 94
E 49 69 90
E 49 70 92
E 49 71 104
E 49 72 100
E 49 73 98
E 49 74 98
E 49 75 107
E 49 76 98
E 49 77 98
E 49 78 101
E 49 79 102
E 49 80 110
E 50 51 108
E 50 52 97
E 50 53 96
E 50 54 92
E 50 55 98
E 50 56 97
E 50 57 104
E 50 58 110
E 50 59 112
E 50 60 97
E 50 61 96
E 50 62 93
E 50 63 95
E 50 64 106
E 50 65 107
E 50 66 102
E 50 67 95
E 50 68 101
E 50 69 102
E 50 70 99
E 50 71 101
E 50 72 96
E 50 73 99
E 50 74 103
E 50 75 110
E 50 76 94
E 50 77 97
E 50 78 98
E 50 79 104
E 50 80 107
E 51 52 107
E 51 53 97
E 51 54 99
E 51 55 101
E 51 56 93
E 51 57 108
E 51 58 103
E 51 59 98
E 51 60 98
E 51 61 99
E 51 62 105
E 51 63 109
E 51 64 99
E 51 65 96
E 51 66 103
E 51 67 95
E 51 68 92
E 51 69 104
E 51 70 100
E 51 71 90
E 51 72 91
E 51 73 100
E 51 74 93
E 51 75 104
E 51 76 100
E 51 77 92
E 51 78 101
E 51 79 98
E 51 80 101
E 52 53 102
E 52 54 99
E 52 55 98
E 52 56 97
E 52 57 89
E 52 58 92
E 52 59 109
E 52 60 98
E 52 61 94
E 52 62 103
E 52 63 106
E 52 64 106
E 52 65 93
E 52 66 102
E 52 67 95
E 52 68 103
E 52 69 103
E 52 70 98
E 52 71 107
E 52 72 102
E 52 73 91
E 52 74 98
E 52 75 102
E 52 76 100
E 52 77 96
E 52 78 96
E 52 79 91
E 52 80 104
E 53 54 103
E 53 55 102
E 53 56 105
E 53 57 100
E 53 58 101
E 53 59 90
E 53 60 103
E 53 61 96
E 53 62 109
E 53 63 112
E 53 64 91
E 53 65 105
E 53 66 97
E 53 67 94
E 53 68 98
E 53 69 99
E 53 70 99
E 53 71 102
E 53 72 99
E 53 73 101
E 53 74 91
E 53 75 104
E 53 76 100
E 53 77 98
E 53 78 101
E 53 79 93
E 53 80 103
E 54 55 104
E 54 56 99
E 54 57 98
E 54 58 101
E 54 59 97
E 54 60 98
E 54 61 106
E 54 62 94
E 54 63 105
E 54 64 97
E 54 65 91
E 54 66 107
E 54 67 99
E 54 68 104
E 54 69 97
E 54 70 100
E 54 71 100
E 54 72 99
E 54 73 91
E 54 74 96
E 54 75 93
E 54 76 98
E 54 77 102
E 54 78 105
E 54 79 105
E 54 80 93
E 55 56 92
E 55 57 106
E 55 58 99
E 55 59 100
E 55 60 93
E 55 61 106
E 55 62 95
E 55 63 93
E 55 64 90
E 55 65 103
E 55 66 102
E 55 67 95
E 55 68 105
E 55 69 102
E 55 70 92
E 55 71 99
E 55 72 107
E 55 73 95
E 55 74 96
E 55 75 108
E 55 76 106
E 55 77 94
E 55 78 98
E 55 79 101
E 55 80 92
E 56 57 93
E 56 58 100
E 56 59 92
E 56 60 107
E 56 61 101
E 56 62 100
E 56 63 94
E 56 64 110
E 56 65 104
E 56 66 95
E 56 67 106
E 56 68 95
E 56 69 97
E 56 70 102
E 56 71 96
E 56 72 108
E 56 73 96
E 56 74 107
E 56 75 105
E 56 76 99
E 56 77 102
E 56 78 102
E 56 79 95
E 56 80 95
E 57 58 100
E 57 59 103
E 57 60 97
E 57 61 98
E 57 62 96
E 57 63 97
E 57 64 99
E 57 65 93
E 57 66 97
E 57 67 105
E 57 68 100
E 57 69 100
E 57 70 100
E 57 71 102
E 57 72 95
E 57 73 107
E 57 74 101
E 57 75 100
E 57 76 99
E 57 77 99
E 57 78 92
E 57 79 109
E 57 80 110
E 58 59 97
E 58 60 95
E 58 61 95
E 58 62 107
E 58 63 100
E 58 64 101
E 58 65 105
E 58 66 95
E 58 67 99
E 58 68 95
E 58 69 97
E 58 70 98
E 58 71 98
E 58 72 102
E 58 73 108
E 58 74 105
E 58 75 110
E 58 76 100
E 58 77 100
E 58 78 102
E 58 79 101
E 58 80 104
E 59 60 96
E 59 61 97
E 59 62 97
E 59 63 102
E 59 64 92
E 59 65 94
E 59 66 93
E 59 67 99
E 59 68 108
E 59 69 105
E 59 70 91
E 59 71 102
E 59 72 94
E 59 73 92
E 59 74 98
E 59 75 102
E 59 76 107
E 59 77 95
E 59 78 103
E 59 79 103
E 59 80 102
E 60 61 99
E 60 62 104
E 60 63 92
E 60 64 108
E 60 65 100
E 60 66 100
E 60 67 92
E 60 68 92
E 60 69 107
E 60 70 100
E 60 71 96
E 60 72 101
E 60 73 99
E 60 74 102
E 60 75 104
E 60 76 104
E 60 77 106
E 60 78 101
E 60 79 93
E 60 80 99
E 61 62 100
E 61 63 97
E 61 64 100
E 61 65 102
E 61 66 106
E 61 67 103
E 61 68 94
E 61 69 104
E 61 70 104
E 61 71 93
E 61 72 102
E 61 73 97
E 61 74 100
E 61 75 96
E 61 76 100
E 61 77 96
E 61 78 100
E 61 79 95
E 61 80 97
E 62 63 107
E 62 64 95
E 62 65 98
E 62 66 110
E 62 67 100
E 62 68 113
E 62 69 100
E 62 70 93
E 62 71 99
E 62 72 100
E 62 73 101
E 62 74 100
E 62 75 103
E 62 76 110
E 62 77 97
E 62 78 109
E 62 79 102
E 62 80 102
E 63 64 103
E 63 65 98
E 63 66 102
E 63 67 89
E 63 68 94
E 63 69 93
E 63 70 97
E 63 71 99
E 63 72 99
E 63 73 108
E 63 74 99
E 63 75 103
E 63 76 99
E 63 77 104
E 63 78 93
E 63 79 98
E 63 80 93
E 64 65 97
E 64 66 96
E 64 67 100
E 64 68 98
E 64 69 100
E 64 70 97
E 64 71 101
E 64 72 104
E 64 73 98
E 64 74 101
E 64 75 100
E 64 76 94
E 64 77 95
E 64 78 102
E 64 79 104
E 64 80 101
E 65 66 93
E 65 67 101
E 65 68 99
E 65 69 95
E 65 70 102
E 65 71 98
E 65 72 105
E 65 73 99
E 65 74 102
E 65 75 104
E 65 76 101
E 65 77 97
E 65 78 102
E 65 79 90
E 65 80 101
E 66 67 100
E 66 68 103
E 66 69 104
E 66 70 98
E 66 71 104
E 66 72 98
E 66 73 109
E 66 74 101
E 66 75 104
E 66 76 98
E 66 77 100
E 66 78 103
E 66 79 85
E 66 80 104
E 67 68 94
E 67 69 99
E 67 70 107
E 67 71 98
E 67 72 96
E 67 73 102
E 67 74 96
E 67 75 102
E 67 76 95
E 67 77 101
E 67 78 107
E 67 79 94
E 67 80 100
E 68 69 101
E 68 70 103
E 68 71 103
E 68 72 111
E 68 73 91
E 68 74 104
E 68 75 98
E 68 76 101
E 68 77 93
E 68 78 98
E 68 79 97
E 68 80 97
E 69 70 107
E 69 71 100
E 69 72 95
E 69 73 107
E 69 74 109
E 69 75 96
E 69 76 93
E 69 77 104
E 69 78 100
E 69 79 102
E 69 80 108
E 70 71 95
E 70 72 98
E 70 73 96
E 70 74 103
E 70 75 90
E 70 76 105
E 70 77 103
E 70 78 99
E 70 79 95
E 70 80 106
E 71 72 95
E 71 73 99
E 71 74 108
E 71 75 100
E 71 76 91
E 71 77 94
E 71 78 96
E 71 79 97
E 71 80 94
E 72 73 103
E 72 74 100
E 72 75 104
E 72 76 101
E 72 77 104
E 72 78 100
E 72 79 96
E 72 80 103
E 73 74 105
E 73 75 101
E 73 76 98
E 73 77 101
E 73 78 104
E 73 79 105
E 73 80 103
E 74 75 108
E 74 76 101
E 74 77 99
E 74 78 100
E 74 79 91
E 74 80 102
E 75 76 94
E 75 77 96
E 75 78 93
E 75 79 93
E 75 80 98
E 76 77 103
E 76 78 98
E 76 79 109
E 76 80 101
E 77 78 104
E 77 79 105
E 77 80 101
E 78 79 101
E 78 80 97
E 79 80 96
END

SECTION Terminals
Terminals 20
T 1
T 2
T 3
T 4
T 5
T 6
T 7
T 8
T 9
T 10
T 11
T 12
T 13
T 14
T 15
T 16
T 17
T 18
T 19
T 20
END

EOF
